01-sat-introduction/circuits.cnf
c Ex 1.2
c mapping:
c  a = 1
c  b = 2
c  c = 3
c x1 = 4
c x2 = 5
c x3 = 6
c x4 = 7
c o1 = 8
c x5 = 9
c o2 = 10
p cnf 10 23

c x1 <-> a && b
-4  1 0
-4  2 0
 4 -1 -2 0

c x2 <-> b || c
-5  2  3 0
 5 -2 0
 5 -3 0

c x3 <-> b && c
-6  2 0
-6  3 0
 6 -2 -3 0

c x4 <-> x2 && x3
-7  5 0
-7  6 0
 7 -5 -6 0

c o1 <-> x1 || x4
-8  4  7 0
 8 -4 0
 8 -7 0

c x5 <-> a || c
-9  1 3 0
 9 -1 0
 9 -3 0

c o2 <-> x5 && b
-10  9 0
-10  2 0
 10 -9 -2 0

c !(o1 <-> o2)
 8  10 0
-8 -10 0
